Base=4;
C=66;
start_setup=[|0,0,0,0,0,13,0,4,0,0,0,0,0,0,0,16
             |0,0,0,0,0,0,0,0,0,0,0,0,0,0,0,11
             |0,4,0,0,0,0,0,0,0,0,0,0,0,0,0,0
             |0,0,0,0,0,0,0,0,0,0,3,0,0,0,0,0
             |0,0,0,4,0,0,0,0,0,0,0,0,11,0,15,0
             |0,0,0,0,0,0,0,0,0,0,0,0,0,0,0,0
             |0,0,0,0,0,0,9,0,0,0,0,11,0,0,7,0
             |15,0,0,0,0,0,0,0,0,0,0,0,0,0,1,0
             |0,2,0,0,0,0,0,0,13,0,0,0,0,0,0,0
             |0,0,0,0,0,0,0,0,0,0,11,0,0,0,0,7
             |0,0,0,0,0,0,0,0,0,1,0,0,14,0,0,0
             |0,0,0,0,0,0,0,0,5,0,0,0,0,0,0,0
             |4,0,0,0,0,7,0,0,0,0,0,9,0,0,0,0
             |0,0,0,0,0,0,0,0,4,0,0,0,0,11,0,0
             |0,11,10,0,0,3,0,1,0,15,0,0,0,0,0,0
             |0,0,0,0,0,0,0,9,0,7,0,5,4,0,0,0
|];
target_sum=[61,56,24,17,3,31,15,89,22,23,23,7,6,14,15,13,43,33,4,48,51,13,29,47,20,29,2,19,85,25,39,37,93,11,22,38,11,45,56,78,28,24,32,23,18,49,12,15,25,14,94,14,3,30,11,21,48,77,13,42,50,64,9,118,37,8];
tile2cage=[
19,64,64,64,20,20,20,42,42,42,39,39,39,32,32,61
,19,64,64,64,64,64,20,24,24,39,39,63,25,32,32,61
,62,64,64,64,34,34,20,24,24,66,39,63,25,3,61,61
,62,64,64,6,6,36,12,60,60,60,44,59,59,3,11,61
,62,62,62,62,6,36,36,36,36,60,44,49,56,3,11,61
,62,62,62,65,65,65,14,13,57,57,44,49,56,17,17,17
,40,40,40,27,65,65,14,57,57,57,57,49,31,17,41,41
,40,40,40,40,8,8,8,29,29,29,29,29,31,31,41,41
,18,18,18,37,8,8,8,29,29,29,29,53,31,31,41,43
,35,18,18,48,48,58,8,8,10,10,55,52,21,21,21,43
,35,30,30,48,58,58,16,8,10,15,15,54,54,21,7,43
,35,30,51,51,58,58,58,8,38,15,4,4,1,21,7,43
,33,47,47,51,58,58,58,58,38,50,9,9,1,1,1,1
,33,47,51,51,51,26,46,46,38,50,9,9,2,2,28,28
,33,33,51,51,51,26,46,46,38,23,23,45,2,2,2,2
,33,33,33,33,51,26,46,46,38,22,22,45,2,5,2,2];
